c description: Tseitin formula on , with even charge
c generator: CNFgen (0.9.0)
c copyright: (C) 2012-2020 Massimo Lauria <massimo.lauria@uniroma1.it>
c url: https://massimolauria.net/cnfgen
c
p cnf 20 136
1 -2 0
-1 2 0
3 4 5 6 -7 0
3 4 5 -6 7 0
3 4 -5 6 7 0
3 4 -5 -6 -7 0
3 -4 5 6 7 0
3 -4 5 -6 -7 0
3 -4 -5 6 -7 0
3 -4 -5 -6 7 0
-3 4 5 6 7 0
-3 4 5 -6 -7 0
-3 4 -5 6 -7 0
-3 4 -5 -6 7 0
-3 -4 5 6 -7 0
-3 -4 5 -6 7 0
-3 -4 -5 6 7 0
-3 -4 -5 -6 -7 0
3 8 9 -10 0
3 8 -9 10 0
3 -8 9 10 0
3 -8 -9 -10 0
-3 8 9 10 0
-3 8 -9 -10 0
-3 -8 9 -10 0
-3 -8 -9 10 0
4 11 12 -13 0
4 11 -12 13 0
4 -11 12 13 0
4 -11 -12 -13 0
-4 11 12 13 0
-4 11 -12 -13 0
-4 -11 12 -13 0
-4 -11 -12 13 0
1 8 11 14 -15 0
1 8 11 -14 15 0
1 8 -11 14 15 0
1 8 -11 -14 -15 0
1 -8 11 14 15 0
1 -8 11 -14 -15 0
1 -8 -11 14 -15 0
1 -8 -11 -14 15 0
-1 8 11 14 15 0
-1 8 11 -14 -15 0
-1 8 -11 14 -15 0
-1 8 -11 -14 15 0
-1 -8 11 14 -15 0
-1 -8 11 -14 15 0
-1 -8 -11 14 15 0
-1 -8 -11 -14 -15 0
5 16 17 -18 0
5 16 -17 18 0
5 -16 17 18 0
5 -16 -17 -18 0
-5 16 17 18 0
-5 16 -17 -18 0
-5 -16 17 -18 0
-5 -16 -17 18 0
9 -19 0
-9 19 0
12 14 -16 0
12 -14 16 0
-12 14 16 0
-12 -14 -16 0
6 15 17 -20 0
6 15 -17 20 0
6 -15 17 20 0
6 -15 -17 -20 0
-6 15 17 20 0
-6 15 -17 -20 0
-6 -15 17 -20 0
-6 -15 -17 20 0
2 7 10 13 18 19 -20 0
2 7 10 13 18 -19 20 0
2 7 10 13 -18 19 20 0
2 7 10 13 -18 -19 -20 0
2 7 10 -13 18 19 20 0
2 7 10 -13 18 -19 -20 0
2 7 10 -13 -18 19 -20 0
2 7 10 -13 -18 -19 20 0
2 7 -10 13 18 19 20 0
2 7 -10 13 18 -19 -20 0
2 7 -10 13 -18 19 -20 0
2 7 -10 13 -18 -19 20 0
2 7 -10 -13 18 19 -20 0
2 7 -10 -13 18 -19 20 0
2 7 -10 -13 -18 19 20 0
2 7 -10 -13 -18 -19 -20 0
2 -7 10 13 18 19 20 0
2 -7 10 13 18 -19 -20 0
2 -7 10 13 -18 19 -20 0
2 -7 10 13 -18 -19 20 0
2 -7 10 -13 18 19 -20 0
2 -7 10 -13 18 -19 20 0
2 -7 10 -13 -18 19 20 0
2 -7 10 -13 -18 -19 -20 0
2 -7 -10 13 18 19 -20 0
2 -7 -10 13 18 -19 20 0
2 -7 -10 13 -18 19 20 0
2 -7 -10 13 -18 -19 -20 0
2 -7 -10 -13 18 19 20 0
2 -7 -10 -13 18 -19 -20 0
2 -7 -10 -13 -18 19 -20 0
2 -7 -10 -13 -18 -19 20 0
-2 7 10 13 18 19 20 0
-2 7 10 13 18 -19 -20 0
-2 7 10 13 -18 19 -20 0
-2 7 10 13 -18 -19 20 0
-2 7 10 -13 18 19 -20 0
-2 7 10 -13 18 -19 20 0
-2 7 10 -13 -18 19 20 0
-2 7 10 -13 -18 -19 -20 0
-2 7 -10 13 18 19 -20 0
-2 7 -10 13 18 -19 20 0
-2 7 -10 13 -18 19 20 0
-2 7 -10 13 -18 -19 -20 0
-2 7 -10 -13 18 19 20 0
-2 7 -10 -13 18 -19 -20 0
-2 7 -10 -13 -18 19 -20 0
-2 7 -10 -13 -18 -19 20 0
-2 -7 10 13 18 19 -20 0
-2 -7 10 13 18 -19 20 0
-2 -7 10 13 -18 19 20 0
-2 -7 10 13 -18 -19 -20 0
-2 -7 10 -13 18 19 20 0
-2 -7 10 -13 18 -19 -20 0
-2 -7 10 -13 -18 19 -20 0
-2 -7 10 -13 -18 -19 20 0
-2 -7 -10 13 18 19 20 0
-2 -7 -10 13 18 -19 -20 0
-2 -7 -10 13 -18 19 -20 0
-2 -7 -10 13 -18 -19 20 0
-2 -7 -10 -13 18 19 -20 0
-2 -7 -10 -13 18 -19 20 0
-2 -7 -10 -13 -18 19 20 0
-2 -7 -10 -13 -18 -19 -20 0